345 5
10 10 10 10 10 

0 0 0 0 0 0 5 2 14 26 38 50 
0 0 0 0 0 0 1 3 
6 0 0 0 1 0 2 7 4 
5 0 0 0 7 0 1 5 
10 0 0 0 10 0 2 9 6 
7 0 0 0 10 0 1 8 
4 0 0 0 7 0 2 8 70 
3 0 0 0 6 0 1 10 
6 0 0 0 9 0 1 10 
3 0 0 0 5 0 2 12 11 
1 0 0 0 10 0 1 13 
7 0 0 0 10 0 1 13 
0 0 0 0 0 0 1 62 
0 0 0 0 0 0 2 15 16 
4 0 5 0 0 0 1 17 
4 0 10 0 0 0 1 17 
5 0 2 0 0 0 2 24 18 
7 0 10 0 0 0 1 19 
10 0 8 0 0 0 2 23 20 
6 0 10 0 0 0 1 21 
4 0 6 0 0 0 1 22 
8 0 7 0 0 0 1 25 
8 0 9 0 0 0 2 25 180 
7 0 8 0 0 0 1 25 
0 0 0 0 0 0 1 62 
0 0 0 0 0 0 1 27 
4 0 0 2 0 0 2 36 28 
7 0 0 8 0 0 1 29 
7 0 0 10 0 0 2 35 30 
6 0 0 9 0 0 2 34 31 
10 0 0 6 0 0 1 32 
7 0 0 10 0 0 1 33 
7 0 0 8 0 0 1 37 
2 0 0 9 0 0 1 37 
5 0 0 6 0 0 2 37 243 
7 0 0 7 0 0 1 37 
0 0 0 0 0 0 1 62 
0 0 0 0 0 0 2 39 43 
6 0 1 0 0 0 1 40 
1 0 5 0 0 0 1 41 
10 0 10 0 0 0 2 46 42 
8 0 7 0 0 0 2 48 44 
6 0 10 0 0 0 2 46 44 
5 0 9 0 0 0 1 45 
4 0 10 0 0 0 2 47 56 
1 0 6 0 0 0 1 47 
3 0 7 0 0 0 1 49 
1 0 10 0 0 0 1 49 
0 0 0 0 0 0 1 62 
0 0 0 0 0 0 3 51 52 54 
5 1 0 0 0 0 2 53 322 
5 10 0 0 0 0 1 53 
9 9 0 0 0 0 2 59 55 
5 9 0 0 0 0 2 59 57 
2 6 0 0 0 0 1 56 
2 9 0 0 0 0 1 57 
7 10 0 0 0 0 1 58 
9 6 0 0 0 0 1 60 
9 7 0 0 0 0 1 60 
2 8 0 0 0 0 1 61 
0 0 0 0 0 0 1 62 
0 0 0 0 0 0 5 63 75 87 99 111 
0 0 0 0 0 0 1 64 
7 3 0 0 0 0 2 68 65 
1 10 0 0 0 0 1 66 
3 7 0 0 0 0 1 67 
3 5 0 0 0 0 2 72 69 
4 9 0 0 0 0 2 73 70 
7 10 0 0 0 0 1 70 
2 7 0 0 0 0 1 71 
7 7 0 0 0 0 2 74 150 
4 7 0 0 0 0 1 74 
1 10 0 0 0 0 1 74 
0 0 0 0 0 0 1 123 
0 0 0 0 0 0 3 76 79 85 
6 0 1 0 0 0 2 84 77 
3 0 6 0 0 0 1 78 
1 0 8 0 0 0 1 80 
8 0 10 0 0 0 1 80 
5 0 10 0 0 0 1 81 
3 0 10 0 0 0 1 82 
1 0 8 0 0 0 1 83 
2 0 4 0 0 0 1 86 
4 0 8 0 0 0 2 86 281 
10 0 10 0 0 0 1 86 
0 0 0 0 0 0 1 123 
0 0 0 0 0 0 2 88 89 
5 2 0 0 0 0 2 93 90 
1 9 0 0 0 0 2 93 92 
5 6 0 0 0 0 1 91 
6 10 0 0 0 0 1 92 
9 10 0 0 0 0 2 97 94 
7 6 0 0 0 0 2 97 94 
3 7 0 0 0 0 1 95 
7 8 0 0 0 0 1 96 
2 10 0 0 0 0 2 98 316 
8 7 0 0 0 0 1 98 
0 0 0 0 0 0 1 123 
0 0 0 0 0 0 2 100 102 
5 0 0 0 0 2 1 101 
9 0 0 0 0 9 2 105 103 
5 0 0 0 0 9 2 105 103 
1 0 0 0 0 9 1 104 
5 0 0 0 0 4 1 106 
6 0 0 0 0 8 1 106 
3 0 0 0 0 10 2 109 107 
1 0 0 0 0 8 1 108 
10 0 0 0 0 6 2 110 343 
1 0 0 0 0 10 1 110 
0 0 0 0 0 0 1 123 
0 0 0 0 0 0 2 112 117 
4 0 0 0 0 2 1 113 
4 0 0 0 0 8 1 114 
2 0 0 0 0 10 2 121 115 
4 0 0 0 0 4 2 120 116 
6 0 0 0 0 9 2 118 138 
2 0 0 0 0 8 1 118 
2 0 0 0 0 7 1 119 
8 0 0 0 0 9 1 122 
9 0 0 0 0 9 1 122 
6 0 0 0 0 9 1 122 
0 0 0 0 0 0 1 123 
0 0 0 0 0 0 5 124 136 148 160 172 
0 0 0 0 0 0 3 125 128 130 
9 0 4 0 0 0 1 126 
9 0 6 0 0 0 1 127 
4 0 9 0 0 0 1 129 
4 0 10 0 0 0 1 129 
2 0 10 0 0 0 2 134 131 
7 0 10 0 0 0 2 134 132 
2 0 5 0 0 0 2 132 298 
4 0 6 0 0 0 1 133 
8 0 5 0 0 0 1 135 
2 0 10 0 0 0 1 135 
0 0 0 0 0 0 1 184 
0 0 0 0 0 0 1 137 
4 0 0 0 0 2 2 139 138 
8 0 0 0 0 9 1 140 
3 0 0 0 0 10 1 140 
1 0 0 0 0 10 2 143 141 
3 0 0 0 0 8 2 142 326 
5 0 0 0 0 6 1 144 
5 0 0 0 0 4 1 144 
2 0 0 0 0 10 2 146 145 
10 0 0 0 0 8 1 147 
4 0 0 0 0 8 1 147 
0 0 0 0 0 0 1 184 
0 0 0 0 0 0 2 149 150 
8 0 0 0 6 0 2 155 151 
1 0 0 0 8 0 4 155 153 152 221 
2 0 0 0 5 0 2 153 152 
10 0 0 0 10 0 1 154 
9 0 0 0 9 0 1 154 
2 0 0 0 10 0 1 156 
9 0 0 0 8 0 1 156 
8 0 0 0 7 0 1 157 
3 0 0 0 6 0 1 158 
7 0 0 0 6 0 1 159 
0 0 0 0 0 0 1 184 
0 0 0 0 0 0 4 161 163 164 236 
9 0 1 0 0 0 1 162 
9 0 10 0 0 0 2 170 165 
5 0 8 0 0 0 2 170 167 
6 0 9 0 0 0 2 170 167 
9 0 6 0 0 0 1 166 
8 0 10 0 0 0 1 167 
4 0 9 0 0 0 1 168 
3 0 9 0 0 0 1 169 
6 0 6 0 0 0 1 171 
6 0 7 0 0 0 1 171 
0 0 0 0 0 0 1 184 
0 0 0 0 0 0 1 173 
7 0 0 0 0 5 2 179 174 
7 0 0 0 0 5 2 178 175 
2 0 0 0 0 9 2 182 176 
7 0 0 0 0 8 1 177 
4 0 0 0 0 7 1 180 
7 0 0 0 0 9 1 180 
6 0 0 0 0 10 1 180 
9 0 0 0 0 4 1 181 
7 0 0 0 0 10 2 183 292 
4 0 0 0 0 8 1 183 
0 0 0 0 0 0 1 184 
0 0 0 0 0 0 5 185 207 229 251 263 
0 0 0 0 0 0 1 186 
3 0 0 2 2 0 2 191 187 
4 0 0 6 5 0 2 195 188 
3 0 0 10 9 0 1 189 
4 0 0 9 3 0 2 197 190 
7 0 0 8 8 0 3 198 192 268 
1 0 0 9 8 0 3 198 197 194 
3 0 0 6 10 0 1 193 
6 0 0 10 9 0 1 194 
6 0 0 5 7 0 2 200 196 
5 0 0 10 9 0 2 199 197 
9 0 0 8 9 0 1 199 
5 0 0 10 9 0 1 200 
3 0 0 7 8 0 1 199 
7 0 0 8 8 0 1 201 
7 0 0 7 10 0 1 201 
10 0 0 3 7 0 1 202 
9 0 0 9 7 0 1 203 
10 0 0 7 10 0 1 204 
9 0 0 9 5 0 1 205 
1 0 0 7 7 0 1 206 
0 0 0 0 0 0 1 345 
0 0 0 0 0 0 3 208 222 227 
4 0 0 2 2 0 3 226 209 265 
4 0 0 7 8 0 1 210 
8 0 0 6 10 0 1 211 
6 0 0 10 3 0 1 212 
9 0 0 8 8 0 2 225 213 
8 0 0 7 6 0 1 214 
6 0 0 9 5 0 2 220 215 
4 0 0 8 9 0 1 216 
4 0 0 9 6 0 1 217 
2 0 0 8 9 0 1 218 
4 0 0 3 9 0 1 219 
2 0 0 8 7 0 1 221 
10 0 0 6 9 0 1 221 
8 0 0 6 10 0 1 223 
2 0 0 10 10 0 1 223 
5 0 0 7 9 0 1 224 
10 0 0 10 10 0 1 228 
4 0 0 9 10 0 1 228 
3 0 0 7 6 0 1 228 
6 0 0 10 4 0 1 228 
0 0 0 0 0 0 1 345 
0 0 0 0 0 0 1 230 
8 0 6 0 3 0 2 235 231 
3 0 8 0 10 0 2 242 232 
8 0 7 0 5 0 2 248 233 
8 0 10 0 5 0 1 234 
9 0 8 0 4 0 2 247 236 
3 0 8 0 10 0 3 248 247 238 
1 0 10 0 10 0 1 237 
8 0 10 0 5 0 2 241 238 
9 0 5 0 10 0 1 239 
9 0 5 0 10 0 1 240 
8 0 4 0 7 0 1 243 
5 0 10 0 9 0 1 243 
3 0 6 0 10 0 2 243 336 
7 0 10 0 10 0 1 244 
5 0 8 0 7 0 1 245 
1 0 10 0 8 0 1 246 
10 0 6 0 6 0 1 249 
6 0 7 0 5 0 1 249 
9 0 8 0 6 0 1 249 
1 0 4 0 10 0 1 250 
0 0 0 0 0 0 1 345 
0 0 0 0 0 0 2 252 257 
8 7 0 0 0 0 1 253 
3 10 0 0 0 0 1 254 
6 10 0 0 0 0 3 261 260 255 
10 5 0 0 0 0 1 256 
2 3 0 0 0 0 1 258 
10 10 0 0 0 0 2 258 271 
10 7 0 0 0 0 1 259 
6 4 0 0 0 0 1 262 
10 10 0 0 0 0 1 262 
6 9 0 0 0 0 1 262 
0 0 0 0 0 0 5 285 297 309 321 333 
0 0 0 0 0 0 4 264 272 283 314 
3 0 0 4 0 1 2 282 265 
5 0 0 5 0 6 2 274 266 
5 0 0 5 0 7 1 267 
5 0 0 4 0 3 1 268 
8 0 0 10 0 8 1 269 
4 0 0 10 0 10 1 270 
6 0 0 6 0 10 1 271 
5 0 0 7 0 8 1 273 
1 0 0 9 0 6 1 273 
7 0 0 10 0 10 2 281 275 
1 0 0 6 0 10 2 281 275 
10 0 0 6 0 10 1 276 
2 0 0 6 0 10 1 277 
6 0 0 7 0 7 1 278 
10 0 0 8 0 8 1 279 
4 0 0 10 0 6 1 280 
6 0 0 10 0 7 1 284 
2 0 0 10 0 7 1 284 
9 0 0 9 0 8 1 284 
6 0 0 8 0 8 1 284 
0 0 0 0 0 0 1 345 
0 0 0 0 0 0 3 286 287 294 
1 0 0 0 0 3 2 292 288 
2 0 0 0 0 10 2 292 289 
7 0 0 0 0 7 1 289 
5 0 0 0 0 10 1 290 
8 0 0 0 0 5 1 291 
8 0 0 0 0 10 1 293 
3 0 0 0 0 10 1 293 
5 0 0 0 0 8 1 295 
2 0 0 0 0 6 2 295 317 
7 0 0 0 0 6 1 296 
0 0 0 0 0 0 1 345 
0 0 0 0 0 0 2 298 300 
9 3 0 0 0 0 2 307 299 
5 8 0 0 0 0 3 304 301 310 
3 10 0 0 0 0 2 307 303 
9 10 0 0 0 0 1 302 
1 10 0 0 0 0 1 303 
6 5 0 0 0 0 1 305 
9 8 0 0 0 0 1 305 
7 10 0 0 0 0 1 306 
4 7 0 0 0 0 1 308 
9 4 0 0 0 0 1 308 
0 0 0 0 0 0 1 345 
0 0 0 0 0 0 2 310 311 
3 0 8 0 0 0 2 313 312 
2 0 8 0 0 0 2 313 312 
6 0 6 0 0 0 2 315 314 
6 0 10 0 0 0 1 314 
9 0 4 0 0 0 2 316 340 
4 0 6 0 0 0 1 316 
10 0 10 0 0 0 1 317 
1 0 7 0 0 0 1 318 
8 0 6 0 0 0 1 319 
4 0 10 0 0 0 1 320 
0 0 0 0 0 0 1 345 
0 0 0 0 0 0 3 322 325 326 
1 2 0 0 0 0 1 323 
1 5 0 0 0 0 1 324 
2 7 0 0 0 0 1 327 
3 10 0 0 0 0 2 327 340 
1 10 0 0 0 0 2 331 329 
2 7 0 0 0 0 1 328 
4 8 0 0 0 0 1 329 
3 9 0 0 0 0 1 330 
8 10 0 0 0 0 1 332 
9 7 0 0 0 0 1 332 
0 0 0 0 0 0 1 345 
0 0 0 0 0 0 2 334 336 
5 3 0 0 0 0 2 337 335 
10 10 0 0 0 0 1 338 
5 9 0 0 0 0 1 337 
8 7 0 0 0 0 1 339 
8 8 0 0 0 0 1 339 
2 6 0 0 0 0 1 340 
2 5 0 0 0 0 2 343 341 
2 7 0 0 0 0 1 342 
5 10 0 0 0 0 1 344 
10 10 0 0 0 0 1 344 
0 0 0 0 0 0 1 345 
0 0 0 0 0 0 0 
